NAME : tsp_80_sol.txt
COMMENT : OR-Tools Guided Local Search
TYPE : TOUR
DIMENSION : 50
COST : 5722
STATUS : ROUTING_SUCCESS
GAP : 0.00% (Reference Solution)
TOUR_SECTION
1
25
15
19
30
26
16
31
6
41
20
24
49
33
23
34
10
36
38
29
47
9
27
7
3
42
37
2
12
4
45
48
50
13
40
39
35
17
32
8
28
22
44
14
21
46
43
11
18
5
-1
